unit_size = 3;
cages = [ (cells:[(1,1),(1,2)], value:3),
          (cells:[(1,3),(1,4),(1,5)], value:15),
          (cells:[(1,6),(2,5),(2,6),(3,5)], value:22),
          (cells:[(1,7),(2,7)], value:4),
          (cells:[(1,8),(2,8)], value:16),
          (cells:[(1,9),(2,9),(3,9),(4,9)], value:15),
          (cells:[(2,1),(2,2),(3,1),(3,2)], value:25),
          (cells:[(2,3),(2,4)], value:17),
          (cells:[(3,3),(3,4),(4,4)], value:9),
          (cells:[(3,6),(4,6),(5,6)], value:8),
          (cells:[(3,7),(3,8),(4,7)], value:20),
          (cells:[(4,1),(5,1)], value:6),
          (cells:[(4,2),(4,3)], value:14),
          (cells:[(4,5),(5,5),(6,5)], value:17),
          (cells:[(4,8),(5,7),(5,8)], value:17),
          (cells:[(5,2),(5,3),(6,2)], value:13),
          (cells:[(5,4),(6,4),(7,4)], value:20),
          (cells:[(5,9),(6,9)], value:12),
          (cells:[(6,1),(7,1),(8,1),(9,1)], value:27),
          (cells:[(6,3),(7,2),(7,3)], value:6),
          (cells:[(6,6),(7,6),(7,7)], value:20),
          (cells:[(6,7),(6,8)], value:6),
          (cells:[(7,5),(8,4),(8,5),(9,4)], value:10),
          (cells:[(7,8),(7,9),(8,8),(8,9)], value:14),
          (cells:[(8,2),(9,2)], value:8),
          (cells:[(8,3),(9,3)], value:16),
          (cells:[(8,6),(8,7)], value:15),
          (cells:[(9,5),(9,6),(9,7)], value:13),
          (cells:[(9,8),(9,9)], value:17)
        ];
