dimension = 3;
steps = [((0,0),(0,1)), ((0,1),(0,2)), ((0,2),(0,3)),
         ((1,0),(1,1)), ((1,1),(1,2)), ((1,2),(1,3)), 
         ((2,0),(2,1)), ((2,1),(2,2)), ((2,2),(2,3)), 
         ((3,0),(3,1)), ((3,1),(3,2)), ((3,2),(3,3)), 
         ((0,0),(1,0)), ((1,0),(2,0)), ((2,0),(3,0)), 
         ((0,1),(1,1)), ((1,1),(2,1)), ((2,1),(3,1)), 
         ((0,2),(1,2)), ((1,2),(2,2)), ((2,2),(3,2)), 
         ((0,3),(1,3)), ((1,3),(2,3)), ((2,3),(3,3)), 
        ];
cost = [| 1,1,1,1 | 3,3,4,3 | 3,3,1,3 | 3,3,1,1 |];
max_steps = 40;
start = (0,0);
end = (3,3);